%%%mzn-stat: initTime=0.010992388
%%%mzn-stat: objective=809
%%%mzn-stat: nodes=12480
%%%mzn-stat: restarts=2
%%%mzn-stat: peakDepth=592
%%%mzn-stat: solveTime=3.9912424
%%%mzn-stat: variables=1077
%%%mzn-stat: propagators=784
%%%mzn-stat: failures=10245
%%%mzn-stat: propagations=284554
%%%mzn-stat: nogoods=10245
%%%mzn-stat: AverageConflictSize=9.728843338213762
%%%mzn-stat: NumUnitNogoodsLearned=214
%%%mzn-stat: AverageLearnedNogoodLength=20.78204001952172
%%%mzn-stat: AverageBacktrackAmount=0
%%%mzn-stat: AverageLbd=8.3734504636408
%%%mzn-stat-end
maxleg = 809;
succ = array1d(1..100,[97, 87, 49, 80, 13, 37, 73, 47, 42, 21, 86, 44, 30, 81, 32, 88, 54, 2, 59, 72, 52, 48, 25, 9, 31, 41, 76, 57, 55, 94, 36, 91, 14, 71, 23, 19, 64, 45, 26, 50, 6, 77, 58, 34, 3, 100, 89, 99, 83, 8, 22, 69, 84, 93, 63, 11, 67, 39, 10, 98, 15, 79, 12, 62, 70, 18, 85, 96, 33, 17, 43, 65, 5, 1, 16, 35, 27, 61, 60, 74, 46, 53, 51, 29, 38, 68, 90, 40, 95, 92, 7, 56, 4, 20, 82, 24, 28, 78, 66, 75]);
% time elapsed: 9.83 s
----------
%%%mzn-stat: initTime=0.010992388
%%%mzn-stat: objective=690
%%%mzn-stat: nodes=15394
%%%mzn-stat: restarts=18
%%%mzn-stat: peakDepth=592
%%%mzn-stat: solveTime=5.018308634
%%%mzn-stat: variables=1077
%%%mzn-stat: propagators=784
%%%mzn-stat: failures=11278
%%%mzn-stat: propagations=328060
%%%mzn-stat: nogoods=11278
%%%mzn-stat: AverageConflictSize=15.53839333215109
%%%mzn-stat: NumUnitNogoodsLearned=214
%%%mzn-stat: AverageLearnedNogoodLength=26.432434828870367
%%%mzn-stat: AverageBacktrackAmount=0
%%%mzn-stat: AverageLbd=11.578205355559497
%%%mzn-stat-end
maxleg = 690;
succ = array1d(1..100,[97, 87, 49, 80, 13, 37, 61, 47, 42, 21, 86, 44, 30, 52, 32, 88, 54, 2, 59, 94, 62, 48, 25, 9, 31, 41, 76, 57, 55, 73, 36, 91, 14, 71, 23, 19, 43, 45, 26, 50, 6, 77, 17, 34, 70, 100, 89, 99, 83, 8, 22, 79, 84, 93, 63, 11, 67, 39, 10, 98, 15, 69, 12, 58, 72, 18, 85, 96, 33, 65, 64, 20, 7, 1, 16, 35, 27, 81, 60, 74, 46, 53, 51, 29, 38, 68, 90, 40, 95, 92, 3, 56, 4, 5, 82, 24, 28, 78, 66, 75]);
% time elapsed: 10.84 s
----------
==========
% time elapsed: 12.07 s
%%%mzn-stat: initTime=0.010992388
%%%mzn-stat: objective=690
%%%mzn-stat: nodes=19235
%%%mzn-stat: restarts=19
%%%mzn-stat: peakDepth=592
%%%mzn-stat: solveTime=6.252874149
%%%mzn-stat: variables=1077
%%%mzn-stat: propagators=784
%%%mzn-stat: failures=14543
%%%mzn-stat: propagations=398652
%%%mzn-stat: nogoods=14543
%%%mzn-stat: AverageConflictSize=14.276421646152789
%%%mzn-stat: NumUnitNogoodsLearned=215
%%%mzn-stat: AverageLearnedNogoodLength=24.11682596438149
%%%mzn-stat: AverageBacktrackAmount=0
%%%mzn-stat: AverageLbd=10.62965000343808
%%%mzn-stat-end
